FourierSAT_Github_AIJ/benchmarks/MAXSAT_benchmarks/3/bipartite/maxcut-140-630-0.8/maxcut-140-630-0.8-9.cnf
c strEdges: 125  randomEdges: 504 
c degrees:  1  2 
c girth: Inf max: -43.604516  
c Hgirth mixed MAXCUT instance
c generated from an undirected graph
c to solve unweighted MaxCut
p cnf 140 1258
43 93 0
-43 -93 0
36 7 0
-36 -7 0
36 74 0
-36 -74 0
21 24 0
-21 -24 0
21 17 0
-21 -17 0
70 129 0
-70 -129 0
55 99 0
-55 -99 0
55 65 0
-55 -65 0
76 46 0
-76 -46 0
76 33 0
-76 -33 0
8 13 0
-8 -13 0
8 50 0
-8 -50 0
133 9 0
-133 -9 0
133 125 0
-133 -125 0
77 119 0
-77 -119 0
77 137 0
-77 -137 0
88 20 0
-88 -20 0
82 61 0
-82 -61 0
82 59 0
-82 -59 0
79 68 0
-79 -68 0
79 106 0
-79 -106 0
98 27 0
-98 -27 0
66 65 0
-66 -65 0
66 122 0
-66 -122 0
62 38 0
-62 -38 0
62 90 0
-62 -90 0
22 71 0
-22 -71 0
22 15 0
-22 -15 0
32 48 0
-32 -48 0
80 19 0
-80 -19 0
80 103 0
-80 -103 0
118 59 0
-118 -59 0
118 26 0
-118 -26 0
5 105 0
-5 -105 0
5 37 0
-5 -37 0
135 67 0
-135 -67 0
135 71 0
-135 -71 0
4 107 0
-4 -107 0
4 56 0
-4 -56 0
28 50 0
-28 -50 0
28 6 0
-28 -6 0
52 16 0
-52 -16 0
52 46 0
-52 -46 0
104 47 0
-104 -47 0
104 100 0
-104 -100 0
97 112 0
-97 -112 0
116 33 0
-116 -33 0
116 129 0
-116 -129 0
45 91 0
-45 -91 0
45 16 0
-45 -16 0
64 17 0
-64 -17 0
10 132 0
-10 -132 0
10 44 0
-10 -44 0
120 74 0
-120 -74 0
120 107 0
-120 -107 0
84 6 0
-84 -6 0
81 35 0
-81 -35 0
81 94 0
-81 -94 0
72 108 0
-72 -108 0
72 68 0
-72 -68 0
60 117 0
-60 -117 0
60 57 0
-60 -57 0
69 101 0
-69 -101 0
69 112 0
-69 -112 0
139 90 0
-139 -90 0
139 124 0
-139 -124 0
92 26 0
-92 -26 0
92 12 0
-92 -12 0
49 29 0
-49 -29 0
49 114 0
-49 -114 0
2 56 0
-2 -56 0
2 102 0
-2 -102 0
25 125 0
-25 -125 0
25 96 0
-25 -96 0
63 121 0
-63 -121 0
63 7 0
-63 -7 0
18 73 0
-18 -73 0
18 134 0
-18 -134 0
42 137 0
-42 -137 0
42 1 0
-42 -1 0
14 126 0
-14 -126 0
34 96 0
-34 -96 0
34 89 0
-34 -89 0
85 89 0
-85 -89 0
85 93 0
-85 -93 0
75 111 0
-75 -111 0
75 123 0
-75 -123 0
53 1 0
-53 -1 0
53 47 0
-53 -47 0
54 134 0
-54 -134 0
54 121 0
-54 -121 0
130 136 0
-130 -136 0
130 39 0
-130 -39 0
83 114 0
-83 -114 0
138 78 0
-138 -78 0
138 101 0
-138 -101 0
131 15 0
-131 -15 0
87 41 0
-87 -41 0
87 73 0
-87 -73 0
140 127 0
-140 -127 0
140 132 0
-140 -132 0
115 106 0
-115 -106 0
115 111 0
-115 -111 0
23 124 0
-23 -124 0
23 20 0
-23 -20 0
51 12 0
-51 -12 0
109 39 0
-109 -39 0
109 119 0
-109 -119 0
11 94 0
-11 -94 0
58 102 0
-58 -102 0
58 9 0
-58 -9 0
86 100 0
-86 -100 0
86 30 0
-86 -30 0
3 103 0
-3 -103 0
128 57 0
-128 -57 0
128 67 0
-128 -67 0
31 30 0
-31 -30 0
31 29 0
-31 -29 0
113 37 0
-113 -37 0
113 126 0
-113 -126 0
110 122 0
-110 -122 0
40 123 0
-40 -123 0
40 91 0
-40 -91 0
95 44 0
-95 -44 0
95 136 0
-95 -136 0
116 123 0
-116 -123 0
5 132 0
-5 -132 0
97 25 0
-97 -25 0
88 100 0
-88 -100 0
60 9 0
-60 -9 0
115 41 0
-115 -41 0
140 123 0
-140 -123 0
79 69 0
-79 -69 0
97 124 0
-97 -124 0
118 127 0
-118 -127 0
46 94 0
-46 -94 0
133 72 0
-133 -72 0
75 37 0
-75 -37 0
102 37 0
-102 -37 0
88 102 0
-88 -102 0
107 101 0
-107 -101 0
56 96 0
-56 -96 0
81 54 0
-81 -54 0
8 124 0
-8 -124 0
63 40 0
-63 -40 0
128 59 0
-128 -59 0
81 41 0
-81 -41 0
61 127 0
-61 -127 0
32 130 0
-32 -130 0
22 12 0
-22 -12 0
109 137 0
-109 -137 0
43 130 0
-43 -130 0
130 103 0
-130 -103 0
85 12 0
-85 -12 0
34 132 0
-34 -132 0
17 37 0
-17 -37 0
48 126 0
-48 -126 0
68 101 0
-68 -101 0
50 33 0
-50 -33 0
56 121 0
-56 -121 0
79 28 0
-79 -28 0
79 64 0
-79 -64 0
140 30 0
-140 -30 0
88 131 0
-88 -131 0
54 12 0
-54 -12 0
43 36 0
-43 -36 0
10 78 0
-10 -78 0
22 56 0
-22 -56 0
129 12 0
-129 -12 0
125 122 0
-125 -122 0
50 102 0
-50 -102 0
134 37 0
-134 -37 0
54 1 0
-54 -1 0
84 73 0
-84 -73 0
70 97 0
-70 -97 0
110 30 0
-110 -30 0
120 46 0
-120 -46 0
88 118 0
-88 -118 0
55 32 0
-55 -32 0
5 9 0
-5 -9 0
11 129 0
-11 -129 0
35 96 0
-35 -96 0
81 125 0
-81 -125 0
140 126 0
-140 -126 0
76 129 0
-76 -129 0
5 112 0
-5 -112 0
84 86 0
-84 -86 0
2 3 0
-2 -3 0
115 20 0
-115 -20 0
5 127 0
-5 -127 0
25 63 0
-25 -63 0
61 94 0
-61 -94 0
99 37 0
-99 -37 0
69 93 0
-69 -93 0
10 75 0
-10 -75 0
118 34 0
-118 -34 0
16 127 0
-16 -127 0
9 136 0
-9 -136 0
31 47 0
-31 -47 0
82 17 0
-82 -17 0
21 88 0
-21 -88 0
31 127 0
-31 -127 0
13 73 0
-13 -73 0
116 121 0
-116 -121 0
82 80 0
-82 -80 0
104 29 0
-104 -29 0
81 11 0
-81 -11 0
113 68 0
-113 -68 0
13 35 0
-13 -35 0
10 125 0
-10 -125 0
56 125 0
-56 -125 0
90 123 0
-90 -123 0
69 130 0
-69 -130 0
117 26 0
-117 -26 0
118 115 0
-118 -115 0
107 112 0
-107 -112 0
126 12 0
-126 -12 0
70 98 0
-70 -98 0
5 137 0
-5 -137 0
29 94 0
-29 -94 0
129 123 0
-129 -123 0
129 46 0
-129 -46 0
77 31 0
-77 -31 0
82 35 0
-82 -35 0
75 134 0
-75 -134 0
83 117 0
-83 -117 0
81 89 0
-81 -89 0
35 39 0
-35 -39 0
29 73 0
-29 -73 0
11 71 0
-11 -71 0
91 122 0
-91 -122 0
84 131 0
-84 -131 0
28 87 0
-28 -87 0
117 41 0
-117 -41 0
81 1 0
-81 -1 0
60 109 0
-60 -109 0
70 51 0
-70 -51 0
76 45 0
-76 -45 0
18 34 0
-18 -34 0
138 96 0
-138 -96 0
84 13 0
-84 -13 0
80 69 0
-80 -69 0
53 130 0
-53 -130 0
77 2 0
-77 -2 0
139 91 0
-139 -91 0
110 61 0
-110 -61 0
61 17 0
-61 -17 0
54 48 0
-54 -48 0
131 140 0
-131 -140 0
130 109 0
-130 -109 0
130 41 0
-130 -41 0
69 65 0
-69 -65 0
104 101 0
-104 -101 0
4 9 0
-4 -9 0
67 136 0
-67 -136 0
87 127 0
-87 -127 0
115 100 0
-115 -100 0
20 16 0
-20 -16 0
8 14 0
-8 -14 0
38 56 0
-38 -56 0
14 101 0
-14 -101 0
77 95 0
-77 -95 0
93 67 0
-93 -67 0
71 103 0
-71 -103 0
8 126 0
-8 -126 0
50 37 0
-50 -37 0
27 117 0
-27 -117 0
87 125 0
-87 -125 0
9 6 0
-9 -6 0
72 131 0
-72 -131 0
27 107 0
-27 -107 0
36 110 0
-36 -110 0
3 17 0
-3 -17 0
49 86 0
-49 -86 0
47 125 0
-47 -125 0
47 91 0
-47 -91 0
128 117 0
-128 -117 0
70 127 0
-70 -127 0
61 103 0
-61 -103 0
72 114 0
-72 -114 0
51 35 0
-51 -35 0
21 65 0
-21 -65 0
25 11 0
-25 -11 0
136 127 0
-136 -127 0
2 119 0
-2 -119 0
72 94 0
-72 -94 0
109 71 0
-109 -71 0
27 56 0
-27 -56 0
36 3 0
-36 -3 0
79 86 0
-79 -86 0
91 134 0
-91 -134 0
7 35 0
-7 -35 0
50 74 0
-50 -74 0
116 101 0
-116 -101 0
75 24 0
-75 -24 0
77 54 0
-77 -54 0
76 34 0
-76 -34 0
112 124 0
-112 -124 0
3 27 0
-3 -27 0
71 90 0
-71 -90 0
53 83 0
-53 -83 0
126 134 0
-126 -134 0
26 1 0
-26 -1 0
135 74 0
-135 -74 0
129 127 0
-129 -127 0
43 133 0
-43 -133 0
82 47 0
-82 -47 0
77 90 0
-77 -90 0
128 41 0
-128 -41 0
12 44 0
-12 -44 0
36 65 0
-36 -65 0
30 123 0
-30 -123 0
118 140 0
-118 -140 0
5 13 0
-5 -13 0
79 66 0
-79 -66 0
113 122 0
-113 -122 0
25 123 0
-25 -123 0
140 74 0
-140 -74 0
19 117 0
-19 -117 0
83 24 0
-83 -24 0
63 86 0
-63 -86 0
113 137 0
-113 -137 0
70 139 0
-70 -139 0
135 14 0
-135 -14 0
62 25 0
-62 -25 0
22 114 0
-22 -114 0
46 20 0
-46 -20 0
112 33 0
-112 -33 0
88 1 0
-88 -1 0
62 120 0
-62 -120 0
11 100 0
-11 -100 0
138 125 0
-138 -125 0
38 33 0
-38 -33 0
124 30 0
-124 -30 0
10 123 0
-10 -123 0
138 136 0
-138 -136 0
64 60 0
-64 -60 0
63 114 0
-63 -114 0
130 105 0
-130 -105 0
105 39 0
-105 -39 0
70 101 0
-70 -101 0
52 61 0
-52 -61 0
42 7 0
-42 -7 0
79 111 0
-79 -111 0
60 140 0
-60 -140 0
135 33 0
-135 -33 0
20 6 0
-20 -6 0
68 50 0
-68 -50 0
28 132 0
-28 -132 0
9 1 0
-9 -1 0
84 24 0
-84 -24 0
49 101 0
-49 -101 0
66 80 0
-66 -80 0
115 26 0
-115 -26 0
28 108 0
-28 -108 0
77 37 0
-77 -37 0
69 115 0
-69 -115 0
25 94 0
-25 -94 0
98 125 0
-98 -125 0
69 75 0
-69 -75 0
140 58 0
-140 -58 0
23 29 0
-23 -29 0
45 69 0
-45 -69 0
10 130 0
-10 -130 0
36 1 0
-36 -1 0
139 128 0
-139 -128 0
76 95 0
-76 -95 0
113 57 0
-113 -57 0
106 12 0
-106 -12 0
26 126 0
-26 -126 0
109 96 0
-109 -96 0
27 101 0
-27 -101 0
63 138 0
-63 -138 0
62 50 0
-62 -50 0
135 30 0
-135 -30 0
16 101 0
-16 -101 0
42 96 0
-42 -96 0
50 57 0
-50 -57 0
70 108 0
-70 -108 0
10 129 0
-10 -129 0
77 65 0
-77 -65 0
85 17 0
-85 -17 0
76 35 0
-76 -35 0
133 17 0
-133 -17 0
69 85 0
-69 -85 0
51 89 0
-51 -89 0
59 67 0
-59 -67 0
98 59 0
-98 -59 0
116 51 0
-116 -51 0
53 27 0
-53 -27 0
72 35 0
-72 -35 0
5 92 0
-5 -92 0
9 20 0
-9 -20 0
70 66 0
-70 -66 0
27 91 0
-27 -91 0
9 74 0
-9 -74 0
115 13 0
-115 -13 0
79 108 0
-79 -108 0
128 93 0
-128 -93 0
98 136 0
-98 -136 0
8 40 0
-8 -40 0
99 119 0
-99 -119 0
79 113 0
-79 -113 0
17 12 0
-17 -12 0
117 39 0
-117 -39 0
65 90 0
-65 -90 0
85 90 0
-85 -90 0
5 61 0
-5 -61 0
64 81 0
-64 -81 0
60 115 0
-60 -115 0
98 118 0
-98 -118 0
14 115 0
-14 -115 0
71 19 0
-71 -19 0
10 102 0
-10 -102 0
79 35 0
-79 -35 0
104 92 0
-104 -92 0
33 94 0
-33 -94 0
97 50 0
-97 -50 0
88 39 0
-88 -39 0
11 24 0
-11 -24 0
40 7 0
-40 -7 0
75 131 0
-75 -131 0
135 123 0
-135 -123 0
25 15 0
-25 -15 0
98 64 0
-98 -64 0
14 17 0
-14 -17 0
22 93 0
-22 -93 0
133 25 0
-133 -25 0
88 113 0
-88 -113 0
8 77 0
-8 -77 0
19 132 0
-19 -132 0
87 31 0
-87 -31 0
2 6 0
-2 -6 0
115 44 0
-115 -44 0
3 113 0
-3 -113 0
104 58 0
-104 -58 0
116 1 0
-116 -1 0
62 114 0
-62 -114 0
104 120 0
-104 -120 0
13 57 0
-13 -57 0
52 45 0
-52 -45 0
74 122 0
-74 -122 0
133 116 0
-133 -116 0
32 137 0
-32 -137 0
13 44 0
-13 -44 0
97 53 0
-97 -53 0
85 137 0
-85 -137 0
116 84 0
-116 -84 0
88 114 0
-88 -114 0
131 30 0
-131 -30 0
18 108 0
-18 -108 0
87 122 0
-87 -122 0
5 56 0
-5 -56 0
93 125 0
-93 -125 0
3 89 0
-3 -89 0
21 44 0
-21 -44 0
31 101 0
-31 -101 0
36 66 0
-36 -66 0
6 94 0
-6 -94 0
13 39 0
-13 -39 0
40 1 0
-40 -1 0
53 35 0
-53 -35 0
69 114 0
-69 -114 0
139 125 0
-139 -125 0
55 63 0
-55 -63 0
138 23 0
-138 -23 0
53 106 0
-53 -106 0
117 125 0
-117 -125 0
29 102 0
-29 -102 0
31 125 0
-31 -125 0
76 119 0
-76 -119 0
76 120 0
-76 -120 0
112 136 0
-112 -136 0
8 57 0
-8 -57 0
20 90 0
-20 -90 0
14 65 0
-14 -65 0
132 111 0
-132 -111 0
75 93 0
-75 -93 0
132 108 0
-132 -108 0
70 14 0
-70 -14 0
139 109 0
-139 -109 0
54 138 0
-54 -138 0
27 114 0
-27 -114 0
69 95 0
-69 -95 0
68 111 0
-68 -111 0
53 51 0
-53 -51 0
131 44 0
-131 -44 0
2 112 0
-2 -112 0
66 112 0
-66 -112 0
61 136 0
-61 -136 0
133 129 0
-133 -129 0
22 69 0
-22 -69 0
40 27 0
-40 -27 0
82 122 0
-82 -122 0
98 113 0
-98 -113 0
128 100 0
-128 -100 0
97 101 0
-97 -101 0
115 94 0
-115 -94 0
78 30 0
-78 -30 0
53 87 0
-53 -87 0
121 30 0
-121 -30 0
90 1 0
-90 -1 0
83 40 0
-83 -40 0
104 9 0
-104 -9 0
56 114 0
-56 -114 0
80 119 0
-80 -119 0
112 74 0
-112 -74 0
80 54 0
-80 -54 0
66 110 0
-66 -110 0
13 20 0
-13 -20 0
105 37 0
-105 -37 0
2 1 0
-2 -1 0
104 94 0
-104 -94 0
51 112 0
-51 -112 0
33 39 0
-33 -39 0
28 114 0
-28 -114 0
55 121 0
-55 -121 0
131 95 0
-131 -95 0
58 68 0
-58 -68 0
49 132 0
-49 -132 0
103 30 0
-103 -30 0
113 105 0
-113 -105 0
53 24 0
-53 -24 0
109 74 0
-109 -74 0
18 85 0
-18 -85 0
88 23 0
-88 -23 0
109 124 0
-109 -124 0
116 105 0
-116 -105 0
69 99 0
-69 -99 0
10 41 0
-10 -41 0
5 67 0
-5 -67 0
4 2 0
-4 -2 0
84 106 0
-84 -106 0
77 89 0
-77 -89 0
43 135 0
-43 -135 0
47 17 0
-47 -17 0
76 135 0
-76 -135 0
139 47 0
-139 -47 0
46 29 0
-46 -29 0
80 129 0
-80 -129 0
65 102 0
-65 -102 0
41 30 0
-41 -30 0
95 107 0
-95 -107 0
119 117 0
-119 -117 0
17 90 0
-17 -90 0
99 12 0
-99 -12 0
118 99 0
-118 -99 0
4 90 0
-4 -90 0
2 125 0
-2 -125 0
85 19 0
-85 -19 0
92 114 0
-92 -114 0
120 112 0
-120 -112 0
28 126 0
-28 -126 0
14 1 0
-14 -1 0
86 105 0
-86 -105 0
138 103 0
-138 -103 0
86 134 0
-86 -134 0
47 94 0
-47 -94 0
6 26 0
-6 -26 0
60 51 0
-60 -51 0
47 96 0
-47 -96 0
136 57 0
-136 -57 0
36 95 0
-36 -95 0
80 65 0
-80 -65 0
118 86 0
-118 -86 0
9 56 0
-9 -56 0
43 90 0
-43 -90 0
52 64 0
-52 -64 0
87 56 0
-87 -56 0
140 37 0
-140 -37 0
10 119 0
-10 -119 0
62 54 0
-62 -54 0
116 73 0
-116 -73 0
112 91 0
-112 -91 0
86 102 0
-86 -102 0
138 35 0
-138 -35 0
18 50 0
-18 -50 0
128 90 0
-128 -90 0
60 3 0
-60 -3 0
46 107 0
-46 -107 0
92 85 0
-92 -85 0
64 92 0
-64 -92 0
22 117 0
-22 -117 0
66 41 0
-66 -41 0
59 17 0
-59 -17 0
62 119 0
-62 -119 0
104 1 0
-104 -1 0
4 136 0
-4 -136 0
40 15 0
-40 -15 0
138 1 0
-138 -1 0
45 107 0
-45 -107 0
104 3 0
-104 -3 0
47 127 0
-47 -127 0
49 46 0
-49 -46 0
55 7 0
-55 -7 0
8 49 0
-8 -49 0
108 15 0
-108 -15 0
128 113 0
-128 -113 0
94 30 0
-94 -30 0
49 103 0
-49 -103 0
5 16 0
-5 -16 0
84 69 0
-84 -69 0
59 6 0
-59 -6 0
7 15 0
-7 -15 0
135 23 0
-135 -23 0
74 15 0
-74 -15 0
7 100 0
-7 -100 0
5 54 0
-5 -54 0
140 47 0
-140 -47 0
61 102 0
-61 -102 0
61 137 0
-61 -137 0
10 23 0
-10 -23 0
49 126 0
-49 -126 0
43 129 0
-43 -129 0
132 39 0
-132 -39 0
24 99 0
-24 -99 0
98 38 0
-98 -38 0
32 115 0
-32 -115 0
76 127 0
-76 -127 0
113 74 0
-113 -74 0
8 129 0
-8 -129 0
43 28 0
-43 -28 0
115 51 0
-115 -51 0
120 94 0
-120 -94 0
70 2 0
-70 -2 0
3 57 0
-3 -57 0
120 1 0
-120 -1 0
83 67 0
-83 -67 0
5 122 0
-5 -122 0
