FourierSAT_Github_AIJ/res/fs_1core/maxcut-140-630-0.8-9.cnf.txt
o 186
o 183
